400
500
400
400
399
399
397
396
394
393
393
392
391
390
389
388
387
387
387
386
386
384
384
383
383
383
383
382
382
381
381
380
379
378
378
378
376
376
375
375
373
373
371
371
370
370
368
366
364
362
360
360
360
359
359
359
359
357
356
354
354
353
353
352
352
351
351
350
349
349
349
348
348
348
348
348
348
346
346
345
345
344
344
343
343
342
342
341
340
340
339
339
338
337
336
336
334
333
333
333
329
329
328
321
321
321
321
319
316
316
315
314
313
313
310
310
306
306
305
303
302
302
302
301
301
301
299
298
297
297
295
294
293
292
292
292
292
291
290
288
288
288
287
286
286
284
284
283
283
282
279
278
278
278
277
277
276
276
273
273
273
271
271
271
271
270
270
269
269
268
268
266
266
265
265
262
261
261
259
258
258
256
256
256
256
255
255
254
253
253
253
252
251
251
250
248
247
247
247
247
246
244
243
243
243
242
242
240
238
238
238
236
233
233
232
232
231
231
228
228
227
227
226
224
222
221
221
220
220
219
219
219
219
218
217
217
217
216
216
215
214
211
210
210
209
209
208
208
207
207
207
206
205
205
204
204
204
203
202
202
202
202
201
201
201
199
197
196
195
195
195
192
192
190
189
189
188
185
185
183
183
183
181
180
180
179
178
177
177
176
176
175
173
172
172
170
170
169
168
168
168
168
166
165
165
161
161
161
160
160
159
157
157
155
154
153
152
152
151
151
149
149
148
147
147
145
145
145
144
144
143
142
140
139
139
139
138
138
138
136
136
136
136
135
135
135
134
134
133
131
130
130
130
130
130
128
127
124
123
123
122
122
122
121
121
121
120
120
120
119
119
118
117
117
116
116
114
114
114
113
113
112
112
111
110
110
109
109
108
107
107
106
106
106
105
105
105
104
104
102
102
100
